0 6 2
1 15 16
2 13 20
3 3 4
4 29 26
5 23 13
6 2 6
7 17 15
8 19 20
9 5 0
10 16 14
11 21 12
12 8 3
13 29 17
14 21 19
15 9 1
16 18 27
17 23 25
18 1 7
19 16 17
20 25 22
21 4 6
22 17 28
23 20 24
24 5 2
25 18 15
26 22 19
27 10 6
28 17 14
29 3 9